
Gurobi 7.0.2 (linux64) logging started Thu Jun  8 16:19:19 2017

Changed value of parameter logfile to result/NEIS-20170608T1453/scenario_CO2-price-0100.log
   Prev: gurobi.log  Default: 
Optimize a model with 1059933 rows, 937229 columns and 3961670 nonzeros
Coefficient statistics:
  Matrix range     [8e-04, 1e+05]
  Objective range  [1e+00, 1e+00]
  Bounds range     [0e+00, 0e+00]
  RHS range        [3e-03, 1e+05]

Concurrent LP optimizer: primal simplex, dual simplex, and barrier
Showing barrier log only...

Presolve removed 580114 rows and 635954 columns
Presolve time: 2.96s
Presolved: 479819 rows, 301275 columns, 1383529 nonzeros

Ordering time: 0.41s

Barrier statistics:
 Dense cols : 22
 AA' NZ     : 1.918e+06
 Factor NZ  : 6.933e+06 (roughly 400 MBytes of memory)
 Factor Ops : 1.616e+08 (less than 1 second per iteration)
 Threads    : 22

                  Objective                Residual
Iter       Primal          Dual         Primal    Dual     Compl     Time
   0   3.74724931e+11 -2.71526592e+11  8.79e+02 6.62e+03  2.06e+07     4s
   1   2.95829971e+11 -9.41449266e+10  6.46e+02 1.38e+04  6.75e+06     5s
   2   2.88852861e+11 -6.54141887e+10  6.37e+02 6.79e+03  5.95e+06     6s
   3   1.93160210e+11 -9.02491813e+10  4.16e+02 2.18e+02  3.94e+06     6s
   4   5.51969650e+09 -7.68476631e+10  6.06e+00 6.17e+00  1.60e+05     7s
   5   8.48086012e+08 -9.51425241e+09  5.97e-01 1.37e-05  1.61e+04     7s
   6   3.32962609e+08 -2.81443382e+09  1.21e-01 3.81e-06  4.40e+03     8s
   7   1.48585951e+08 -6.39543115e+08  1.52e-02 3.04e-06  1.06e+03     8s
   8   1.41485857e+08 -3.49756111e+08  1.39e-02 1.74e-06  6.63e+02     9s
   9   7.71270039e+07 -6.96748863e+07  4.51e-03 3.08e-07  1.97e+02     9s
  10   5.88528276e+07 -2.04838866e+07  1.54e-03 2.57e-07  1.06e+02    10s
  11   3.60023023e+07 -3.72103259e+04  6.43e-04 1.16e-07  4.83e+01    10s
  12   2.72112062e+07  4.29495653e+06  3.79e-04 6.85e-08  3.07e+01    11s
  13   2.35317984e+07  7.88075749e+06  2.74e-04 4.69e-08  2.10e+01    11s
  14   1.86154802e+07  1.03407451e+07  1.28e-04 2.41e-08  1.11e+01    12s
  15   1.82723193e+07  1.13629467e+07  1.18e-04 1.69e-08  9.26e+00    12s
  16   1.74607657e+07  1.21033698e+07  9.59e-05 1.37e-08  7.18e+00    13s
  17   1.63127815e+07  1.27115790e+07  6.21e-05 8.28e-09  4.83e+00    14s
  18   1.60549033e+07  1.30587518e+07  5.47e-05 5.33e-09  4.02e+00    14s
  19   1.57441801e+07  1.32889795e+07  4.59e-05 4.58e-09  3.29e+00    15s
  20   1.54853328e+07  1.34708227e+07  3.85e-05 3.74e-09  2.70e+00    15s
  21   1.52354863e+07  1.36555000e+07  3.02e-05 2.76e-09  2.12e+00    16s
  22   1.48666717e+07  1.37992348e+07  1.97e-05 2.02e-09  1.43e+00    16s
  23   1.47937321e+07  1.38720183e+07  1.75e-05 1.45e-09  1.24e+00    17s
  24   1.47242312e+07  1.39525253e+07  1.56e-05 9.09e-10  1.03e+00    17s
  25   1.45764092e+07  1.40048081e+07  1.14e-05 9.35e-10  7.66e-01    18s
  26   1.44770328e+07  1.40459930e+07  8.51e-06 6.18e-10  5.78e-01    19s
  27   1.44128808e+07  1.40655906e+07  6.64e-06 5.06e-10  4.66e-01    19s
  28   1.43810698e+07  1.40860721e+07  5.72e-06 4.31e-10  3.95e-01    19s
  29   1.43584492e+07  1.41021639e+07  5.08e-06 1.24e-09  3.44e-01    20s
  30   1.43227068e+07  1.41183025e+07  4.13e-06 2.08e-09  2.74e-01    20s
  31   1.43062355e+07  1.41216581e+07  3.66e-06 1.90e-09  2.47e-01    21s
  32   1.42861147e+07  1.41351410e+07  3.15e-06 1.62e-09  2.02e-01    22s
  33   1.42678167e+07  1.41414385e+07  2.68e-06 1.77e-09  1.69e-01    22s
  34   1.42540256e+07  1.41486473e+07  2.29e-06 1.25e-09  1.41e-01    23s
  35   1.42510889e+07  1.41530514e+07  2.21e-06 1.39e-09  1.31e-01    23s
  36   1.42402528e+07  1.41545027e+07  1.90e-06 1.30e-09  1.15e-01    24s
  37   1.42373139e+07  1.41581522e+07  1.81e-06 1.03e-09  1.06e-01    24s
  38   1.42315703e+07  1.41598902e+07  1.65e-06 8.59e-10  9.61e-02    25s
  39   1.42241511e+07  1.41605258e+07  1.45e-06 1.02e-09  8.53e-02    25s
  40   1.42200220e+07  1.41635072e+07  1.33e-06 5.02e-10  7.58e-02    26s
  41   1.42125059e+07  1.41650433e+07  1.13e-06 3.20e-10  6.36e-02    27s
  42   1.42092546e+07  1.41659621e+07  1.04e-06 4.66e-10  5.80e-02    27s
  43   1.42069638e+07  1.41664786e+07  9.76e-07 3.20e-10  5.43e-02    28s
  44   1.42056716e+07  1.41667349e+07  9.40e-07 3.49e-10  5.22e-02    28s
  45   1.42020468e+07  1.41673545e+07  8.35e-07 3.13e-10  4.65e-02    29s
  46   1.41973191e+07  1.41681235e+07  7.07e-07 3.71e-10  3.91e-02    29s
  47   1.41958135e+07  1.41686606e+07  6.63e-07 2.69e-10  3.64e-02    30s
  48   1.41916119e+07  1.41689942e+07  5.49e-07 5.38e-10  3.03e-02    30s
  49   1.41909229e+07  1.41693048e+07  5.30e-07 5.82e-10  2.90e-02    31s
  50   1.41891492e+07  1.41696750e+07  4.79e-07 8.51e-10  2.61e-02    32s
  51   1.41880028e+07  1.41697184e+07  4.47e-07 8.08e-10  2.45e-02    32s
  52   1.41875462e+07  1.41698054e+07  4.34e-07 5.68e-10  2.38e-02    33s
  53   1.41870826e+07  1.41698733e+07  4.21e-07 5.82e-10  2.31e-02    33s
  54   1.41837563e+07  1.41700040e+07  3.31e-07 4.66e-10  1.84e-02    34s
  55   1.41832274e+07  1.41701328e+07  3.15e-07 2.62e-10  1.76e-02    34s
  56   1.41827134e+07  1.41703927e+07  3.01e-07 4.66e-10  1.65e-02    35s
  57   1.41815700e+07  1.41705601e+07  2.71e-07 1.13e-09  1.48e-02    35s
  58   1.41806323e+07  1.41708130e+07  2.45e-07 3.57e-09  1.32e-02    36s
  59   1.41803345e+07  1.41708591e+07  2.36e-07 3.21e-09  1.27e-02    37s
  60   1.41801665e+07  1.41709001e+07  2.32e-07 3.12e-09  1.24e-02    37s
  61   1.41798914e+07  1.41709505e+07  2.24e-07 2.88e-09  1.20e-02    37s
  62   1.41787536e+07  1.41710826e+07  1.92e-07 2.68e-09  1.03e-02    38s
  63   1.41784894e+07  1.41711209e+07  1.84e-07 2.07e-09  9.88e-03    39s
  64   1.41774465e+07  1.41713358e+07  1.54e-07 1.14e-09  8.19e-03    39s
  65   1.41765038e+07  1.41714795e+07  1.29e-07 1.72e-09  6.74e-03    40s
  66   1.41756088e+07  1.41715402e+07  1.02e-07 6.33e-10  5.45e-03    40s
  67   1.41755602e+07  1.41715897e+07  1.01e-07 7.28e-10  5.32e-03    41s
  68   1.41754674e+07  1.41715965e+07  9.79e-08 6.11e-10  5.19e-03    41s
  69   1.41752409e+07  1.41716089e+07  9.13e-08 8.72e-11  4.87e-03    42s
  70   1.41752070e+07  1.41716219e+07  9.03e-08 8.63e-11  4.81e-03    42s
  71   1.41751827e+07  1.41716376e+07  8.96e-08 1.31e-10  4.75e-03    43s
  72   1.41750149e+07  1.41716577e+07  8.48e-08 8.73e-11  4.50e-03    43s
  73   1.41748831e+07  1.41716922e+07  8.08e-08 6.62e-10  4.28e-03    44s
  74   1.41743419e+07  1.41717111e+07  6.54e-08 8.73e-11  3.53e-03    45s
  75   1.41743002e+07  1.41717486e+07  6.41e-08 4.44e-10  3.42e-03    45s
  76   1.41742734e+07  1.41717519e+07  6.33e-08 5.53e-10  3.38e-03    46s
  77   1.41742047e+07  1.41717640e+07  6.13e-08 6.98e-10  3.27e-03    47s
  78   1.41739067e+07  1.41717918e+07  5.25e-08 1.65e-09  2.84e-03    47s
  79   1.41737262e+07  1.41718233e+07  4.71e-08 4.34e-09  2.55e-03    48s
  80   1.41735899e+07  1.41719173e+07  4.32e-08 1.15e-08  2.24e-03    49s
  81   1.41734309e+07  1.41719539e+07  3.88e-08 1.29e-08  1.98e-03    49s
  82   1.41732355e+07  1.41719711e+07  3.31e-08 1.13e-08  1.69e-03    50s
  83   1.41730249e+07  1.41719775e+07  2.69e-08 1.09e-08  1.40e-03    50s
  84   1.41728503e+07  1.41720049e+07  2.15e-08 9.59e-09  1.13e-03    51s
  85   1.41727529e+07  1.41720100e+07  1.88e-08 8.61e-09  9.96e-04    51s
  86   1.41726327e+07  1.41720318e+07  1.53e-08 3.44e-08  8.05e-04    52s
  87   1.41726186e+07  1.41720412e+07  1.50e-08 3.07e-08  7.74e-04    53s
  88   1.41725539e+07  1.41720505e+07  1.30e-08 2.71e-08  6.75e-04    54s
  89   1.41724223e+07  1.41720616e+07  9.01e-09 2.31e-08  4.83e-04    55s
  90   1.41723466e+07  1.41720782e+07  6.73e-09 1.59e-08  3.60e-04    55s
  91   1.41723219e+07  1.41720807e+07  5.97e-09 1.55e-08  3.23e-04    56s
  92   1.41723120e+07  1.41720828e+07  5.69e-09 1.49e-08  3.07e-04    58s
  93   1.41723007e+07  1.41720864e+07  5.35e-09 1.36e-08  2.87e-04    59s
  94   1.41722827e+07  1.41720894e+07  6.13e-09 4.70e-07  2.59e-04    59s
  95   1.41722633e+07  1.41720937e+07  7.40e-09 4.01e-07  2.27e-04    61s
  96   1.41722296e+07  1.41720957e+07  2.83e-08 6.27e-07  1.79e-04    61s
  97   1.41722226e+07  1.41720992e+07  2.53e-08 1.29e-06  1.65e-04    62s
  98   1.41721869e+07  1.41721057e+07  1.42e-06 6.16e-09  1.09e-04    63s
  99   1.41721540e+07  1.41721093e+07  1.31e-06 3.20e-10  5.99e-05    64s
 100   1.41721491e+07  1.41721120e+07  1.11e-06 1.56e-09  4.98e-05    65s
 101   1.41721426e+07  1.41721172e+07  8.15e-07 6.82e-09  3.40e-05    66s
 102   1.41721403e+07  1.41721178e+07  2.99e-06 2.25e-07  3.01e-05    66s
 103   1.41721374e+07  1.41721186e+07  2.49e-06 6.54e-08  2.52e-05    67s
 104   1.41721370e+07  1.41721188e+07  2.42e-06 6.18e-08  2.44e-05    68s
 105   1.41721370e+07  1.41721188e+07  2.42e-06 6.16e-08  2.44e-05    69s
 106   1.41721369e+07  1.41721189e+07  2.40e-06 6.08e-08  2.41e-05    70s
 107   1.41721352e+07  1.41721191e+07  2.10e-06 1.19e-09  2.16e-05    71s
 108   1.41721349e+07  1.41721202e+07  2.04e-06 4.38e-09  1.97e-05    71s
 109   1.41721342e+07  1.41721206e+07  1.73e-06 4.22e-05  1.82e-05    72s
 110   1.41721342e+07  1.41721206e+07  2.24e-06 4.22e-05  1.82e-05    73s
 111   1.41721342e+07  1.41721206e+07  2.24e-06 4.21e-05  1.82e-05    74s
 112   1.41721342e+07  1.41721206e+07  2.24e-06 4.75e-07  1.82e-05    74s
 113   1.41721342e+07  1.41721206e+07  2.36e-06 4.75e-07  1.82e-05    75s
 114   6.67066099e+11 -2.71526592e+11  2.34e+03 6.62e+03  5.40e+07    77s
 115   4.98726049e+11 -3.84498764e+11  1.56e+03 4.95e+03  1.88e+07    79s
 116   8.55618286e+10 -2.49938023e+11  3.06e+01 1.94e+01  7.37e+05    80s
 117   8.84001281e+09 -6.73720456e+10  1.51e+00 9.04e-04  1.12e+05    81s
 118   6.57130047e+08 -5.06760883e+09  6.46e-02 1.22e-04  7.80e+03    82s
 119   1.64401678e+08 -2.30910867e+08  1.33e-03 5.73e-06  5.30e+02    83s
 120   1.48116984e+08 -5.72923830e+07  1.14e-03 1.23e-06  2.75e+02    84s
 121   7.20231480e+07 -3.25994358e+07  3.92e-04 8.29e-07  1.40e+02    85s
 122   5.08005893e+07 -1.35849986e+07  1.95e-04 4.48e-07  8.63e+01    85s
 123   3.20914916e+07 -8.02084646e+06  6.96e-05 3.56e-07  5.38e+01    86s
 124   2.63777632e+07  5.16223555e+05  4.58e-05 2.14e-07  3.47e+01    86s
 125   2.17129400e+07  4.03938914e+06  2.73e-05 1.57e-07  2.37e+01    87s
 126   1.92931958e+07  6.81669612e+06  1.81e-05 1.15e-07  1.67e+01    87s
 127   1.79058957e+07  8.82671191e+06  1.28e-05 8.41e-08  1.22e+01    88s
 128   1.74931567e+07  9.96234422e+06  1.14e-05 6.66e-08  1.01e+01    88s
 129   1.69181199e+07  1.06557217e+07  9.37e-06 5.56e-08  8.39e+00    88s
 130   1.64905912e+07  1.12185821e+07  7.88e-06 4.72e-08  7.07e+00    89s
 131   1.63525358e+07  1.17965527e+07  7.40e-06 3.69e-08  6.11e+00    89s
 132   1.61021814e+07  1.21358047e+07  6.54e-06 3.10e-08  5.32e+00    90s
 133   1.60247665e+07  1.24952842e+07  6.07e-06 2.56e-08  4.73e+00    90s
 134   1.57652806e+07  1.26273789e+07  5.19e-06 2.35e-08  4.21e+00    91s
 135   1.54507063e+07  1.28030768e+07  4.14e-06 2.05e-08  3.55e+00    91s
 136   1.53258709e+07  1.30000716e+07  3.75e-06 1.74e-08  3.12e+00    92s
 137   1.51741920e+07  1.31330616e+07  3.27e-06 1.61e-08  2.74e+00    92s
 138   1.50379648e+07  1.32427827e+07  2.82e-06 1.42e-08  2.41e+00    93s
 139   1.49437592e+07  1.33432686e+07  2.51e-06 1.27e-08  2.15e+00    93s
 140   1.48110833e+07  1.34484862e+07  2.05e-06 1.11e-08  1.83e+00    93s
 141   1.47060987e+07  1.35199558e+07  1.69e-06 1.00e-08  1.59e+00    94s
 142   1.46468434e+07  1.36784966e+07  1.48e-06 7.74e-09  1.30e+00    94s
 143   1.46124118e+07  1.37520786e+07  1.37e-06 6.50e-09  1.15e+00    95s
 144   1.45764747e+07  1.38177520e+07  1.25e-06 5.58e-09  1.02e+00    95s
 145   1.45398980e+07  1.38542499e+07  1.13e-06 4.95e-09  9.19e-01    96s
 146   1.44689218e+07  1.38969155e+07  9.01e-07 4.31e-09  7.67e-01    96s
 147   1.44142400e+07  1.39443768e+07  7.25e-07 3.57e-09  6.30e-01    97s
 148   1.43781419e+07  1.39793711e+07  6.11e-07 3.05e-09  5.34e-01    97s
 149   1.43536343e+07  1.40204772e+07  5.38e-07 2.36e-09  4.47e-01    97s
 150   1.43419556e+07  1.40329181e+07  5.01e-07 2.19e-09  4.14e-01    98s
 151   1.43168368e+07  1.40489517e+07  4.24e-07 1.92e-09  3.59e-01    98s
 152   1.42891789e+07  1.40672123e+07  3.39e-07 3.60e-09  2.98e-01    99s
 153   1.42821222e+07  1.40831984e+07  3.19e-07 3.49e-09  2.67e-01    99s
 154   1.42666155e+07  1.40952168e+07  2.72e-07 3.26e-09  2.30e-01   100s
 155   1.42618893e+07  1.41066857e+07  2.58e-07 3.43e-09  2.08e-01   100s
 156   1.42518132e+07  1.41105877e+07  2.29e-07 2.98e-09  1.89e-01   101s
 157   1.42429682e+07  1.41141297e+07  2.03e-07 2.72e-09  1.73e-01   101s
 158   1.42323301e+07  1.41206799e+07  1.71e-07 1.80e-09  1.50e-01   101s
 159   1.42216991e+07  1.41276950e+07  1.40e-07 2.34e-09  1.26e-01   102s
 160   1.42179712e+07  1.41300161e+07  1.29e-07 2.58e-09  1.18e-01   102s
 161   1.42106006e+07  1.41361095e+07  1.07e-07 1.08e-09  9.98e-02   103s
 162   1.42052432e+07  1.41423525e+07  9.25e-08 6.69e-10  8.43e-02   103s
 163   1.42040298e+07  1.41438985e+07  8.91e-08 4.80e-10  8.06e-02   104s
 164   1.41985990e+07  1.41462499e+07  7.31e-08 4.37e-10  7.02e-02   104s
 165   1.41953547e+07  1.41506484e+07  6.37e-08 5.31e-10  5.99e-02   105s
 166   1.41939053e+07  1.41530375e+07  5.96e-08 3.20e-10  5.48e-02   105s
 167   1.41877809e+07  1.41561047e+07  4.21e-08 9.17e-10  4.25e-02   106s
 168   1.41858319e+07  1.41577360e+07  3.65e-08 5.24e-10  3.77e-02   106s
 169   1.41833066e+07  1.41604989e+07  2.98e-08 1.33e-09  3.06e-02   106s
 170   1.41809270e+07  1.41614000e+07  2.31e-08 1.81e-09  2.62e-02   107s
 171   1.41787526e+07  1.41643935e+07  1.71e-08 1.53e-09  1.92e-02   107s
 172   1.41783233e+07  1.41663121e+07  1.60e-08 6.07e-09  1.61e-02   108s
 173   1.41774018e+07  1.41665880e+07  1.37e-08 5.89e-09  1.45e-02   108s
 174   1.41764679e+07  1.41674290e+07  1.11e-08 9.71e-09  1.21e-02   109s
 175   1.41752005e+07  1.41688994e+07  7.75e-09 6.08e-09  8.45e-03   109s
 176   1.41746220e+07  1.41697941e+07  6.23e-09 8.69e-09  6.47e-03   110s
 177   1.41742335e+07  1.41701002e+07  5.31e-09 4.86e-09  5.54e-03   110s
 178   1.41736643e+07  1.41705010e+07  3.81e-09 5.62e-09  4.24e-03   110s
 179   1.41732649e+07  1.41709730e+07  2.79e-09 1.73e-08  3.07e-03   111s
 180   1.41729262e+07  1.41712814e+07  2.51e-09 2.74e-08  2.20e-03   111s
 181   1.41728613e+07  1.41713948e+07  2.31e-09 2.56e-08  1.97e-03   112s
 182   1.41726418e+07  1.41715712e+07  1.46e-09 2.10e-08  1.43e-03   112s
 183   1.41724804e+07  1.41717547e+07  1.38e-09 1.70e-08  9.73e-04   113s
 184   1.41723956e+07  1.41719452e+07  1.18e-09 6.39e-08  6.04e-04   113s
 185   1.41723210e+07  1.41719845e+07  7.17e-10 4.94e-08  4.51e-04   114s
 186   1.41722645e+07  1.41720066e+07  5.09e-10 4.15e-08  3.46e-04   114s
 187   1.41722533e+07  1.41720211e+07  4.67e-10 3.63e-08  3.11e-04   115s
 188   1.41722110e+07  1.41720458e+07  3.10e-10 2.73e-08  2.21e-04   116s
 189   1.41721888e+07  1.41720656e+07  1.25e-09 2.26e-08  1.65e-04   116s
 190   1.41721741e+07  1.41720915e+07  1.06e-09 1.02e-09  1.11e-04   117s
 191   1.41721441e+07  1.41721036e+07  3.32e-07 1.24e-10  5.43e-05   118s
 192   1.41721313e+07  1.41721116e+07  4.30e-07 2.23e-08  2.63e-05   119s
 193   1.41721276e+07  1.41721188e+07  1.23e-06 2.09e-06  1.17e-05   120s
 194   1.41721257e+07  1.41721216e+07  6.81e-07 7.29e-07  5.40e-06   120s
 195   1.41721257e+07  1.41721216e+07  8.14e-07 7.29e-07  5.40e-06   121s
 196   1.41721257e+07  1.41721216e+07  1.86e-06 7.29e-07  5.40e-06   122s
 197   1.41721257e+07  1.41721216e+07  1.86e-06 7.29e-07  5.40e-06   123s
 198   1.41721257e+07  1.41721216e+07  1.86e-06 7.29e-07  5.40e-06   124s
 199   1.41721257e+07  1.41721216e+07  1.86e-06 7.29e-07  5.40e-06   125s
 200   1.41721257e+07  1.41721216e+07  1.86e-06 7.28e-07  5.40e-06   126s
 201   1.41721257e+07  1.41721216e+07  1.86e-06 7.29e-07  5.40e-06   127s
 202   1.41721257e+07  1.41721216e+07  1.86e-06 7.29e-07  5.39e-06   128s
 203   1.41721257e+07  1.41721216e+07  1.99e-06 7.28e-07  5.39e-06   129s
 204   1.41721257e+07  1.41721216e+07  1.91e-06 7.28e-07  5.39e-06   130s

Barrier performed 204 iterations in 129.84 seconds
Sub-optimal termination - objective 1.41721313e+07

Crossover log...

  208335 DPushes remaining with DInf 0.0000000e+00               130s
   66401 DPushes remaining with DInf 0.0000000e+00               135s
   63872 DPushes remaining with DInf 0.0000000e+00               140s
   61706 DPushes remaining with DInf 0.0000000e+00               145s
   59897 DPushes remaining with DInf 0.0000000e+00               150s
   58091 DPushes remaining with DInf 0.0000000e+00               156s
   57007 DPushes remaining with DInf 0.0000000e+00               160s
   48211 DPushes remaining with DInf 0.0000000e+00               165s
   35524 DPushes remaining with DInf 0.0000000e+00               170s
   31102 DPushes remaining with DInf 0.0000000e+00               175s
   29072 DPushes remaining with DInf 0.0000000e+00               181s
   27967 DPushes remaining with DInf 0.0000000e+00               185s
   24935 DPushes remaining with DInf 0.0000000e+00               190s
   19749 DPushes remaining with DInf 0.0000000e+00               195s
   12869 DPushes remaining with DInf 0.0000000e+00               200s
    5797 DPushes remaining with DInf 0.0000000e+00               206s
       0 DPushes remaining with DInf 3.7805478e-09               207s

  120919 PPushes remaining with PInf 5.8750701e-03               207s
   11386 PPushes remaining with PInf 7.7228799e-02               210s
       0 PPushes remaining with PInf 0.0000000e+00               213s

  Push phase complete: Pinf 0.0000000e+00, Dinf 1.4728549e+03    213s

Iteration    Objective       Primal Inf.    Dual Inf.      Time
  295439    1.4172123e+07   0.000000e+00   1.472855e+03    213s
  295776    1.4172123e+07   0.000000e+00   0.000000e+00    215s

Solved with barrier
Solved in 295776 iterations and 214.91 seconds
Optimal objective  1.417212326e+07
